
******************************************************************************
This program contains Ipopt, a library for large-scale nonlinear optimization.
 Ipopt is released as open source code under the Eclipse Public License (EPL).
         For more information visit http://projects.coin-or.org/Ipopt

This version of Ipopt was compiled from source code available at
    https://github.com/IDAES/Ipopt as part of the Institute for the Design of
    Advanced Energy Systems Process Systems Engineering Framework (IDAES PSE
    Framework) Copyright (c) 2018-2019. See https://github.com/IDAES/idaes-pse.

This version of Ipopt was compiled using HSL, a collection of Fortran codes
    for large-scale scientific computation.  All technical papers, sales and
    publicity material resulting from use of the HSL codes within IPOPT must
    contain the following acknowledgement:
        HSL, a collection of Fortran codes for large-scale scientific
        computation. See http://www.hsl.rl.ac.uk.
******************************************************************************

This is Ipopt version 3.13.2, running with linear solver ma27.

Number of nonzeros in equality constraint Jacobian...:      808
Number of nonzeros in inequality constraint Jacobian.:        0
Number of nonzeros in Lagrangian Hessian.............:      702

Total number of variables............................:      351
                     variables with only lower bounds:      108
                variables with lower and upper bounds:      189
                     variables with only upper bounds:        0
Total number of equality constraints.................:      350
Total number of inequality constraints...............:        0
        inequality constraints with only lower bounds:        0
   inequality constraints with lower and upper bounds:        0
        inequality constraints with only upper bounds:        0

iter    objective    inf_pr   inf_du lg(mu)  ||d||  lg(rg) alpha_du alpha_pr  ls
   0  0.0000000e+00 5.56e-01 2.22e-16  -1.0 0.00e+00    -  0.00e+00 0.00e+00   0
   1  4.8976804e-02 5.18e-01 2.53e+02  -1.0 2.60e+05    -  6.93e-01 5.22e-02h  1
   2  1.0218238e-01 5.06e-01 3.83e+02  -1.0 3.00e+05    -  7.00e-01 2.38e-02h  1
   3  2.2455935e+01 6.78e-02 1.13e+04  -1.0 2.97e+05    -  7.10e-01 9.90e-01h  1
   4  3.1042325e+01 2.90e-03 8.14e+02  -1.0 5.65e+04    -  9.37e-01 9.90e-01h  1
   5  3.1379182e+01 3.33e-05 1.76e+01  -1.0 2.14e+03    -  9.90e-01 9.90e-01h  1
   6  3.1380646e+01 3.23e-05 1.04e+07  -1.0 5.60e+02    -  9.90e-01 3.09e-02f  6
   7  3.1384752e+01 3.13e-05 2.07e+07  -1.0 1.66e+03    -  9.90e-01 3.09e-02f  6
   8  3.1514246e+01 1.17e-04 3.23e+05  -1.0 1.65e+03    -  1.00e+00 9.90e-01H  1
   9  3.1514033e+01 1.16e-06 1.15e+07  -1.0 3.21e+00    -  1.00e+00 9.90e-01h  1
iter    objective    inf_pr   inf_du lg(mu)  ||d||  lg(rg) alpha_du alpha_pr  ls
  10  3.1514031e+01 1.16e-08 1.15e+09  -1.0 2.64e-02    -  1.00e+00 9.90e-01h  1
  11  3.1514031e+01 1.16e-10 1.15e+11  -1.0 2.65e-04    -  1.00e+00 9.90e-01h  1
In iteration 11, 27 Slacks too small, adjusting variable bounds
  12  3.1514031e+01 2.91e-12 1.15e+13  -1.0 2.97e-06    -  1.00e+00 9.90e-01h  1
  13  3.1514031e+01 1.40e-12 3.05e-01  -1.0 8.92e-07    -  1.00e+00 1.00e+00H  1
  14  3.1514030e+01 2.73e-12 1.17e+13  -9.0 2.17e+03    -  9.97e-01 5.86e-06f 18
  15  3.1514022e+01 3.75e-12 1.17e+13  -9.0 1.69e+03    -  9.98e-01 6.01e-05f 15
  16  3.1514022e+01 3.75e-12 1.17e+13  -9.0 1.67e+03    -  1.00e+00 4.76e-07f 22
  17  3.1514020e+01 4.15e-12 1.17e+13  -9.0 1.67e+03    -  1.00e+00 1.53e-05f 17
  18  3.1514020e+01 3.64e-12 1.17e+13  -9.0 1.67e+03    -  1.00e+00 9.09e-13h 41
  19  3.1383739e+01 1.26e-03 3.86e+07  -9.0 1.67e+03    -  1.00e+00 1.00e+00f  1
iter    objective    inf_pr   inf_du lg(mu)  ||d||  lg(rg) alpha_du alpha_pr  ls
  20  3.1382133e+01 1.22e-07 9.77e-04  -9.0 1.97e+01    -  1.00e+00 1.00e+00h  1
  21  3.1382133e+01 4.28e-12 1.65e-11  -9.0 2.70e-04    -  1.00e+00 1.00e+00h  1

Number of Iterations....: 21

                                   (scaled)                 (unscaled)
Objective...............:   3.1382132976643273e+01    3.1382132976643273e+01
Dual infeasibility......:   1.6458219316822524e-11    1.6458219316822524e-11
Constraint violation....:   4.2770231800659531e-12    4.2770231800659531e-12
Complementarity.........:   9.0909106181300524e-10    9.0909106181300524e-10
Overall NLP error.......:   1.5481362861620499e-11    9.0909106181300524e-10


Number of objective function evaluations             = 164
Number of objective gradient evaluations             = 22
Number of equality constraint evaluations            = 164
Number of inequality constraint evaluations          = 0
Number of equality constraint Jacobian evaluations   = 22
Number of inequality constraint Jacobian evaluations = 0
Number of Lagrangian Hessian evaluations             = 21
Total CPU secs in IPOPT (w/o function evaluations)   =      0.041
Total CPU secs in NLP function evaluations           =      0.951

EXIT: Optimal Solution Found.
